8953 58561
13860 60649
35620 62173
61139 32852
49490 62188
23420 54006
37377 60322
36878 54842
14683 53712
11840 35333
60057 31746
61639 24960
49525 54630
53271 34931
54047 31053
42598 15499
57604 57725
24417 44535
46943 53314
17759 24839
37107 24928
39115 58492
23553 22631
64720 29529
31575 54897
25537 64840
46602 7958
62231 3598
63859 27529
60190 17514
46817 52894
33271 11335
57086 21865
53316 59694
36876 10875
35913 23239
58787 58451
24640 33072
4498 29947
39391 39358
18115 53756
25256 1583
47364 4469
59965 38325
61595 15960
35029 11560
